
 102   30
  10   10   10   10   10   10   10   10   10   10   10   10   10   10   10   10   10   10   10   10   10   10   10   10   10   10   10   10   10   10

   0   0   0   0   0   0   0   0   0   0   0   0   0   0   0   0   0   0   0   0   0   0   0   0   0   0   0   0   0   0   0  21 2 3 4 5 6 7 8 9 11 12 13 15 16 17 18 21 22 24 26 34 35 
  10   1   0   0   0   0   0   0   0   0   0   0   0   1   0   0   0   0   0   0   0   0   0   0   1   0   0   0   5   1   0  11 63 60 48 44 40 39 31 29 25 20 10 
   4   0   0   0   0   0   0   0   2   0   0   0   1   0   0   0   0   0   0   0   0   1   0   0   0   0   0   0   0   0   0  14 101 70 67 66 47 45 43 40 39 33 32 30 19 14 
   5   0   0   0   0   0   0   0   4   0   0   0   0   0   0   0   1   0   0   0   0   0   0   0   0   0   0   0   0   0   0  15 99 69 67 65 59 57 55 53 46 44 43 39 37 27 23 
   7   0   0   0   0   0   0   0   0   0   0   0   0   8   0   0   0   0   0   0   0   0   0   0   0   0   0   2   0   0   0  15 100 99 66 60 59 57 55 53 52 51 45 38 36 33 32 
   1   0   0   0   0   0   0   0   0   0   0   0   6   0   1   0   0   0   0   0   0   0   2   0   0   0   1   0   0   0   0  14 101 71 67 66 65 64 59 55 48 45 42 41 40 32 
   9   0   1   0   0   0   0   0   0   0   0   0   0   0   0   0   0   0   0   0   1   0   0   0   4   0   0   0   0   0   0  11 99 90 71 69 64 59 56 44 40 28 19 
   3   0  10   0   0   0   0   0   0   0   0   0   0   0   0   0   0   0   0   0   0   0   0   0   0   1   5   0   0   0   0  10 67 56 55 54 53 47 42 41 27 25 
   9  10   0   0   0   0   0   0   0   0   0   0   0   0   0   0   0   1   2   0   0   0   0   0   0   0   0   0   0   0   1  14 99 97 86 71 63 60 57 56 55 51 50 46 42 29 
   9   0   0   0   0   0   0   0   0   0   0   0   0   0   0   0   0   0   0   0   0   0   0   0   0   0   0   0   0   0   0  16 99 88 69 67 64 62 59 56 55 53 51 50 46 45 43 37 
  10   0   0   1   0   1   0   0   0   0   0   0   6   0   0   0   9   0   0   1   0   1   0   0   0   0   0   0   9   7   0  13 101 68 67 65 64 63 58 54 49 44 42 39 37 
   5   0   0   0   0   0   0   0   0   0   1   1   0   7   0   0   0   0   0   0   0   0   0   0   0   0   7   0   0   0   0  14 98 95 85 70 69 68 66 65 63 58 56 53 49 41 
   5   0   0   0   0   8   0   0   0   0   0   0   0   0   7   0   0   0   0   0   0   0   0   0   0   0   5   0   0   0   0  19 100 99 95 94 93 92 91 89 87 75 71 70 68 65 64 63 58 54 42 
  10   0   0   0   0   0   0   0   0   0   0   5   0   0   0   0   0   0   0   0   0   0   0   0   0   0   0   0   0   0   0  18 100 99 96 95 91 89 88 85 82 71 68 65 63 62 59 56 49 44 
   4   0   0   0   3   0   1   0   0   0   0   0   0   8   0   0   0   5   0   0   0   0   0   0   5   0   7   0   3   0   0  12 100 97 92 90 88 68 58 56 54 44 42 37 
   3   0   0   0   0   0   0   0   0   0   0   0   0   0   0   0   0   0   0   9   0   0   8   0   0   7   0   0   0   0   0  13 97 92 89 86 85 68 65 60 58 56 53 44 40 
   2   0   8   0   0   0   0   0   0   0   0   0   0   0   0   0   0   0   7   0   0   0   4   0   0   0   0   0   0   3   0  11 101 93 91 90 87 71 69 64 63 58 33 
   7   0   0   0   0   0   0   0   0   0   0   0   0   0   0   1   0   0   0   0   0   0   0   0   0   0   0   0   0   0   0  14 99 97 96 95 91 89 85 69 68 62 56 53 49 44 
   9   0   0   0   0   0   0   0   0   0   0   0   0   0   0   0   0   0   0   0   0   0   5   0   0   0   8   0   0   0   0  13 98 93 92 88 87 86 68 63 58 55 54 50 42 
   2   0   0   0   0   0   0   0   0   0   0   0   5   0   0   0   0   9   0   7   0   0   8   4   4   5   0   5   0   0   0  15 98 93 92 90 89 88 87 75 70 69 67 64 56 54 42 
   9   0   0   8   0   0   0   0   0   0   0   0   0   0   0   0   2   0   0   0   9   0   0   0   0   6   0   5   0   6   0   9 100 99 95 91 87 86 56 50 33 
  10   4   0   4   0   8   0   0   0   0   0   0   0   0   0   0   0   0   0   0   0   0   0   0   8   0   0   0   0   0   0  15 99 98 95 93 92 89 88 86 81 78 71 70 63 59 42 
   2   0   0   0   0   0   5   1   0   0   0   0   0   0   0   0   0   0   0   0   0   0   0   0   0   0   5   3   0   0   7  14 100 92 91 90 89 87 86 78 71 70 66 58 56 42 
   7   0   0   0   0   0   0   8   7   0   0   0   0   0   0   0   7   0   0   7   0   0   0   0   9   0   0   0   0   0   0  12 97 95 93 91 89 86 81 80 78 75 47 42 
   5   0   0   6   0   0   0   0   0   1   6   0   0   0   0   0   0   0   0   8   0   0   6   7   0   0   0  10   0   0   0  21 100 99 95 94 93 92 89 88 87 84 82 81 79 78 76 75 74 65 64 62 61 
  10   0   0   0   0   0   4   0   0   0   0   8   0   0   0   0   0   0   6   0   0   0   0   0   5   0   0   0   0   0   0  17 99 94 93 91 90 88 86 82 78 75 71 69 68 62 61 56 51 
   5   0   0   0   0   0   0   0  10   0   0  10   0   0   0   0   0   7   0   0   0   0   0   0   0   0   0   0   0   0   0  15 98 97 93 91 89 87 85 78 70 68 66 63 62 60 58 
  10   0   0   0   0   0   0   0   0   0   0   0   0   0   4   0   0   0   0   0   0   0   0   0   4   0   0   0   0   0   0  15 101 96 95 92 89 88 87 85 80 78 68 66 62 58 51 
   2   8   0   0   0   3   0   5   0   0   0   0   0   0   0   0   0   0   0   0   0   0   0   0   0   7   0   0   0   0   0  13 101 100 93 92 91 88 83 80 79 74 69 53 43 
   6   0   0   6   0   0   0   4   0   0   0   0   0   7   0   0   0   0   6   0   0   0   0   7   0   0   0   0   0   0   0  18 98 95 94 93 91 90 89 87 85 84 83 78 75 69 68 64 61 56 
   4   0   0   8   0   0   5   0   0   0   0   4   9   0   0   0   6   0   0   0   0   0   0   0   0   0   0   0   0   0   0  23 101 100 97 96 95 94 93 92 90 87 86 84 82 81 80 79 78 77 76 75 74 69 61 
   2   0   0   0   0   0   0   0   7   0   0   5   0   0   0   0   0   0   0   0   0   0   6   7   0   8   0   0   0   0   0  10 98 95 92 88 85 69 68 58 56 44 
   1   5   0   0   0   0   0   0   0   0   9   0   6   0   0   6   0   0   4   3   0   0   0   0   0   0   0   0   0   0   0  10 97 94 92 89 88 81 80 78 75 42 
   1   0   0   0   0   0   0   7   0   0   0   0   0   0   0   0   0   0   0   8   0   0   0   0   0   0   0   0   0   0   0  11 92 90 88 85 77 75 67 62 58 56 54 
   2   0   0   0   0   0   0   0   0   0   0   0   0   0   0   0   0   0   8   7   0   7   0   0   0   0   0   0   0   0   0  14 99 93 91 86 84 83 82 80 79 78 74 68 61 55 
   5   0   0   0   0   0   0   0   0   8   0  10   0   0   0   0   0   0   0   0   0   0   0   0   0   0   0   0   0   5   0  16 98 93 90 88 87 86 83 82 81 79 78 76 75 74 73 72 
   9   6   0   0   0   0   0   0   0   0   0   3   0   0   0   0   0   0   0   5   0   0   0   0   0   0   0   0   0   0   0  14 98 91 89 86 85 84 82 80 77 76 75 74 70 61 
   7   0   0   0   0   0   0   0   0   0   0   0   0   0   0   0   0   0   0   0   0  10   0   0   0   0   0   0   5   0   0  11 95 91 90 88 87 85 84 83 74 72 54 
   7   0   0   0   0   0   9   0   0   0   0   0   0   0   0   0   0   0   0   0   0   0   0   0   0   0   0   0   0   0   6  10 94 89 88 87 84 78 76 75 61 56 
   5   0   0   4   0   0   7   0   0   0   0   0   0   0   0   0   0   0   0   0   0   0  10   4   0   6   0   0   0   0   0  12 100 91 88 82 81 79 78 77 75 74 62 61 
   1   0   0   0   0   0   0   0   8   0   0   0   0   0   0   6   0   0  10   0   0   0   0   0   7   0   0   0   0   0   6  11 99 97 93 91 88 86 84 78 76 62 61 
   4   0   0   0   0   0   0   8   0   0   0   0   0   0   0   0   0   0   0   0   0   0   0   0   0   0   6   0   0   0   0  10 96 85 84 82 79 77 76 74 62 61 
  10   0   6   0   0   0   0   8   0   0   0   0   0   0   0   6   0   7   0   0   0   0   0   5  10   0   0   0   0   0   0   8 90 89 85 81 78 75 68 58 
   8   0   0   0   0   0  10   0   0   0   0   0   0   0   8   0   0   4   0   0   7   0   0   0   0   0   0   0   0   0   0  11 94 87 84 81 80 79 78 75 74 73 72 
   5   0   0   8   6   0   0   5   0   0   0   0   0   0   0   0   0   0   5   0   0   0   0   0   0   0   0   0   6   0   0  11 96 93 89 87 86 85 78 77 74 73 72 
   2   6   0   0   0   0   0   0   0   8   0   0   0   0   0   0   0   7   0   0   0   0  10   0   0   0   0   0   0   8   0  11 101 96 94 84 82 78 77 76 75 74 73 
   7   0   4   0   0   0   0   0  10   0   0   0   0   0   0   0   0   0   0   4   0   0   0   0   0   0   0   0   0   0   0  11 96 92 90 88 87 85 79 76 74 73 72 
   3   0   0   0   0   0   0   0   0   0   0   0   0   4   0   0   0   0   0   0   0   0   0   0   0   0   6   0   0   4   0   9 94 91 86 82 80 77 76 74 61 
   7   0   0   0   0   0   0   0   0   0   0   0   0   4   0   0   0   0   8   0   0   0   6   0   0   0   0   0   6   0   0  10 93 92 87 86 80 79 76 75 74 73 
   2   0   0   0   0   0   0   0   8   0   0   0   0   0   0   0   0   0   0   0   0   0   0   0   0   0   7   7   0   0   0   8 89 79 78 77 76 75 74 73 
   1   0   0   0   0   0   0   0   0   0   5   0   0   0   0   0   0   0   0   0   0   0   0   4   0   0   0   6   0   0   0   7 98 84 83 79 76 74 73 
   6   0   0   0   0   0   0   0   6   5   0   0   0   0   0   0   0   0   0   3   6   0   0   0   0   0   0   0   5   0   6   6 97 80 77 75 74 73 
   4   0   0   0   3   0   0   0   0   0   0   0   0   0   0   0   0   0   6   0   0   6   0   0  10   0   0   0   0   0   0   4 82 81 75 61 
   5   0   0   0   0   0   0   0   0   6   0   0   0   0   0   0   0   0   0   0   0   0   0   0   0   8   0   0   0   0   0   5 82 81 79 78 76 
   4   0   0   0   0   8   0   0   0   0   0   0   0   0   7   0   0   0   0   6   0   0   0   0   0   0   0   0   6   0   0   5 95 94 76 75 72 
   6   0   0   0   0   0   0   0   0   0   0   0   0   0   8   0   0   0   0   5   0   0   0   0   0   0   0   0   4   0   0   4 81 80 79 74 
   1   0   0   0   0   0   0   0   0   0   0   0   0   0   7   0   0   0   0   0   0   0   5  10   0   2   0   0  10   0   0   4 91 82 80 75 
   8   0   0   0   0   0   0   0   0   0   0   0   6   0   0   0   0   7   0   0   0   0   6   0   0   7   0   0   0   0   0   2 76 61 
   3   0   0   0   5   0   0   0   0   0   7   0   0   0   0   0   0   0   0   0   0   9   0   0   0   0   0   5   5   0   0   3 97 77 75 
   6   0   0   0   0   0   0   0   0   0   0   0   0   0   0   0   0   0   0   0   0   0   0   4   0   0   0   0   0   0   0   3 95 90 72 
   5   0   0   0   0   0   0   0   0   0   0   0   0   0   6   0   0   0   8   0   0   7   0   0   0   3   0   0   0   0   0   2 73 72 
   6   0   0   0   0   0   0   0   4   0   0   0   0   0   0   0   0   0   5   0   0   6   0   5   0   0   0   0   0   0   6   2 83 72 
   9   0   0   0   0   0   6   0   0   0   0   0   0   0   0   0   0   0   0   0   4   8   0   0   0   0   0   0   0   7   0   2 80 74 
   5   0   8   0   0   0   0   0   0   0   0   0   3   9   0   0   0   5   0   0   0   0   0   0   5   0   0   0   5   0   5   2 86 80 
   3   0   7   0   0   0   0   0   4   0   0   0   6   0   7   0   0   0   0   0   0   0   0   0   8   0   0   0   0   5   0   2 90 77 
   6   0   0   0   3   0   0   5   3   0   0   0   0   0   0   9   9   0   0   0   0   0   0   0   0   0   0   0   8   4   0   2 81 75 
   2   0   0   0   0   7   0   0   0   0   0   0   0   8   0   0   0   0   5   0   0   0   0   9   6   0   0   0   0   4   0   2 83 72 
   7   0   0   0   0   0   0   0   0   0   8   0   0   0   0   9   0   0   0   0   0   0   0   0   0   0   0   0   0   0   0   1 77 
   3   6   0   0   0   0   6   0   0   0   0   0   0   0   0   0   0   0   0   0   0   6   0   0   0   0   0   0   4  10   0   1 72 
   7   0   0   6   0   0   0   0   0   0   0   8   0   0   0   0   0   0   0   8   5   0   0   0   0   0   0   0   0   0   6   1 72 
   1   0   0  10   0   0   0   0   0   7   0   0   0   6   0   0   0   0   0   0   0   0   0   0   6   0   6   0   0   0   8   1 73 
   8   7   0   0   9   0   0   0   0   0   0   0   7   0   0   0   0   0   7   0   0   0   0   0   0   7   0   3   0   0   0   1 102
   4   0   0   0   0   0   0   0   0   0   0   0   7   4   2   0   0   8   0   0   0   0   0   0   0  10   0   0   0   0   0   1 102
   2   7   0   0   0   0   0   0   0   0   0   0   0   0   6   6   0   0   0   0   8   0   0   0   0   0   0   0   0   9   0   1 102
   5   0   0   0   0   0   0   0   0   0   7   0   8   0   0   0   0   0   0   0   0   0   0   0   0   0   0   0  10   9   0   1 102
   7   7   0   0   0   0   0   0   0   0   0   0   0   0   0   0   0   0   7   0   0   0   0   0   0   0   0   8   0   0   9   1 102
   5   0   0   0   0   0   0   0   0   0   0   0   0   0   0   0   0   0   0   0   8   0   0   0   0   0   0   0   0   0   0   1 102
   6   0   0   0   0   0   0   0   0   4   0   0   0   0   0   0   0   0   0   0   0   0   0   0   0   0   0   9   0   0   0   1 102
   6   0   0   0   0   0   0   0   0   0   0   4   0   0   0   0   0   0   0   0   0   0   0   0   0   0   0   0   0   0   0   1 102
   4   0   0   0   0   0   0   0   6   4   0   0   0   0   0   0   0   0   0   0   0   0   0   0   0   5   0   6   0   0   0   1 102
   3   0   0   6   0   0   0   4   0   0   0   0   0   0   0   0   0   6   7   0   0   0   0   0   0   0   0   0   3   0   0   1 102
   7   0   0   0   0   0   0   0   0   9   0   0   0   0   0   0   0   0   2   0   0   0   5   0   5   0   0   0   4   0   0   1 102
   3   0   0   0   0   0   0   0   0   0   0   0   0   0   0   0   0   0   0   0   0   0   3   0   0   0   0   0   6   7   0   1 102
   1   0   0   0   0   0   0   0   0   0   0   0   0   0   0   0  10   0   0   0   0   7   0   0   0   0   0   0   0   0   0   1 102
   3   0   0   0   0   0   0   0   0   0   8   0   0   0   8   0   0   0   0   9   0   0   6   0   0   0   0   0   0   0   0   1 102
   7   0   0   0   0   0   0   0   0   0   0   0   0   0   0   0   0   0   0   0   0   0   0   0   0   0   0   3  10   0   0   1 102
   9   0   0   0   9   0   0   8   0   0   0   0   0   0   0   0   0   0   6   0   0   0   0   0   0   0   8   0   0   0   0   1 102
   6   0   0   0   0   7   0   0   0   0   0   0   0   0   0   0   0   0   8   0   0   0   0   0   0   0   0   8   0   0   0   1 102
   4   0   0   0   0   0   0   0   5   9   0   0   0   6   4   5   0   0   5   0   0   0   3   0   0   0   5   0   0   0   0   1 102
  10   5   0   0   0   0   7   0   0   0   0   0   0   0   8   0   0   0   0   0   0   0   0   0   5   0   0   0   0   7   0   1 102
   5   0   0   8   6   0   0   0   0   2   0   0   0   0   0   0   0   0   0   0   0   7   0   0   0   0   0   0   0   0   0   1 102
   5   0   0   0   0   0   0   9   0   0   0   0   0   0   0   0   0   0   0   0   6   0   9   0   0   0   6   0   0   0   0   1 102
   7   0   0   0   0   0   6   0   0   0   0   0   0   0   0   0   0   0   0   0   0   0   0   0   0   0   0   0   0   0   0   1 102
   1   0   0   0   0   0   0   0   0   9   0   0   0   0   0   0   0   0   0   0   0   0   0   0   0   0   0   0   0   0   0   1 102
   1   0   7   0   0   0   0   0   8   0   0   0   4   0   0   0   0   0   0   0   0   0   7   0   0   0   0  10   0   0   0   1 102
   6   0   3   0  10   0   0   0   0   0   0   0   0   0   0   0   0   0   0   0   0   0   0   0   0   0   0   0   0   0   0   1 102
   9   0   0   0   0   0   0   0   4   0   0   7   0   0   0   0   4   0   0   0   0   0   0   0   0   0   0   0   0   0   0   1 102
   8   0   4   3   0   0   0   0   0   0   0   0   0   0   4   0   0   0   0   0   0   3   5   0   0   0   0   0   0   0   0   1 102
   8   0   8   0   0   0   0   0   0   0   0   0   0   6   0   0   0   0   4   0   0   0   0   0   0   0   0   0   0   0   0   1 102
   2   0   0   0   0   0   0   0   0   0   3   8  10   0   9   0   0   0   0   0   0   0   0   0   0   0   0   0   0   0   0   1 102
   2   0   0   0   0   0   0   0   0   0   0   5   0   0   0   0   0   0   0   0   0   0   0   0   0   8   8   0   0   0   0   1 102
   0   0   0   0   0   0   0   0   0   0   0   0   0   0   0   0   0   0   0   0   0   0   0   0   0   0   0   0   0   0   0   0 
